unknown
(model
; cardinality of BoundSet is 3
(declare-sort BoundSet 0)
; rep: @uc_BoundSet_0
; rep: @uc_BoundSet_1
; rep: @uc_BoundSet_2
; cardinality of UnboundSet is 1
(declare-sort UnboundSet 0)
(declare-fun groundTerm_4 () UnboundSet)
(define-fun IsWearing ((BOUND_VARIABLE_388 BoundSet) (BOUND_VARIABLE_389 BoundSet)) Bool true)
(define-fun IsInFlockOfBirds ((BOUND_VARIABLE_392 BoundSet)) Bool true)
(define-fun IsInside ((BOUND_VARIABLE_392 BoundSet)) Bool false)
)
sat
(model
; cardinality of BoundSet is 1
(declare-sort BoundSet 0)
; rep: @uc_BoundSet_0
; cardinality of UnboundSet is 1
(declare-sort UnboundSet 0)
(declare-fun groundTerm_6 () UnboundSet)
(define-fun IsWearing ((BOUND_VARIABLE_422 BoundSet) (BOUND_VARIABLE_423 BoundSet)) Bool true)
(define-fun IsInFlockOfBirds ((BOUND_VARIABLE_426 BoundSet)) Bool true)
(define-fun IsInside ((BOUND_VARIABLE_426 BoundSet)) Bool false)
)
